<number of tasks>
250

<cycle time>
1000

<order strength>
0.595


<task times>
1 85
2 93
3 173
4 48
5 64
6 90
7 176
8 498
9 157
10 181
11 71
12 34
13 128
14 454
15 140
16 206
17 112
18 201
19 235
20 552
21 87
22 548
23 283
24 81
25 88
26 362
27 522
28 522
29 76
30 98
31 115
32 110
33 532
34 183
35 229
36 254
37 548
38 110
39 88
40 204
41 46
42 225
43 279
44 213
45 96
46 177
47 140
48 44
49 141
50 384
51 119
52 187
53 115
54 263
55 152
56 507
57 593
58 324
59 25
60 306
61 118
62 324
63 85
64 56
65 228
66 83
67 305
68 189
69 41
70 89
71 51
72 222
73 28
74 190
75 442
76 199
77 244
78 274
79 194
80 520
81 192
82 320
83 263
84 63
85 40
86 249
87 200
88 264
89 73
90 295
91 233
92 135
93 63
94 22
95 352
96 229
97 183
98 41
99 182
100 299
101 238
102 131
103 270
104 34
105 351
106 472
107 286
108 367
109 224
110 264
111 139
112 481
113 461
114 34
115 192
116 73
117 108
118 210
119 279
120 493
121 126
122 75
123 121
124 541
125 427
126 194
127 91
128 237
129 229
130 337
131 24
132 578
133 28
134 140
135 178
136 389
137 203
138 72
139 198
140 83
141 223
142 54
143 226
144 407
145 543
146 107
147 90
148 237
149 250
150 178
151 247
152 194
153 123
154 486
155 234
156 175
157 268
158 87
159 497
160 393
161 310
162 226
163 262
164 73
165 153
166 280
167 517
168 128
169 362
170 411
171 49
172 279
173 221
174 35
175 35
176 55
177 37
178 81
179 255
180 277
181 69
182 161
183 85
184 222
185 205
186 363
187 180
188 72
189 523
190 237
191 403
192 117
193 281
194 143
195 245
196 493
197 39
198 37
199 207
200 229
201 158
202 102
203 91
204 95
205 514
206 124
207 357
208 185
209 54
210 275
211 127
212 454
213 182
214 138
215 128
216 73
217 152
218 72
219 28
220 29
221 190
222 54
223 498
224 568
225 236
226 235
227 273
228 28
229 79
230 442
231 32
232 254
233 167
234 532
235 490
236 448
237 163
238 61
239 456
240 105
241 211
242 30
243 107
244 138
245 546
246 299
247 152
248 40
249 262
250 321

<precedence relations>
1,10
2,7
2,8
2,11
2,12
3,9
3,12
4,13
5,12
5,20
6,12
6,13
7,15
8,16
9,17
10,14
11,18
12,19
12,22
12,23
12,38
13,20
13,21
14,24
15,26
16,25
17,28
18,29
19,27
20,29
20,30
20,36
21,87
21,96
22,64
23,30
23,41
23,56
24,31
25,32
26,33
27,36
28,34
29,35
29,37
29,38
29,39
29,41
30,40
31,45
32,43
33,44
34,45
35,42
35,64
36,48
37,76
38,45
39,123
39,165
39,186
39,234
40,46
40,47
41,86
42,49
43,52
44,51
45,50
45,53
45,63
45,74
45,89
46,52
46,54
46,55
46,57
47,146
47,195
48,56
48,65
49,58
50,59
51,60
52,61
52,62
52,64
53,124
54,61
54,62
54,65
55,66
55,73
56,61
56,62
56,63
56,78
57,76
58,67
59,73
60,74
61,68
61,69
61,70
61,71
61,73
62,72
62,77
64,78
65,73
65,74
65,75
65,76
65,77
66,78
67,79
68,80
69,81
70,82
71,83
72,84
73,85
73,88
73,97
74,112
75,86
75,95
76,86
76,88
77,88
78,87
78,89
79,94
80,90
81,91
82,92
83,94
84,94
85,93
86,97
86,122
86,162
87,98
87,106
87,121
88,94
88,95
88,96
88,98
88,106
89,94
89,104
90,99
91,100
92,102
93,103
94,105
94,107
94,113
95,101
95,146
96,104
97,106
97,150
97,163
98,104
99,108
100,112
101,109
102,113
103,111
104,110
104,120
104,149
105,146
105,209
105,217
105,234
106,138
106,146
106,169
107,112
107,114
107,115
108,116
109,117
110,119
111,118
112,120
112,121
113,121
113,137
114,195
115,122
115,123
115,124
116,125
117,128
118,126
119,127
120,128
121,128
121,150
121,162
122,128
122,169
123,183
123,245
124,128
124,129
124,130
124,162
125,132
126,131
127,133
128,134
128,138
129,135
129,137
129,139
130,136
130,164
130,169
131,140
132,141
133,143
134,144
135,145
136,142
136,148
136,150
136,207
137,146
137,149
137,205
138,147
138,151
138,171
139,150
139,189
140,152
141,153
142,154
143,156
144,157
145,157
146,155
147,164
149,196
149,232
150,172
151,176
152,162
153,158
154,161
155,159
156,160
157,163
157,164
157,165
158,169
159,166
160,167
161,168
162,169
162,171
162,214
163,172
163,177
164,170
164,172
165,183
166,177
167,174
168,178
169,240
169,246
170,173
170,178
171,175
171,185
172,176
172,178
172,195
173,180
174,182
175,181
176,179
176,185
176,239
177,182
178,183
178,184
178,186
179,187
180,189
181,189
182,188
182,240
183,190
183,232
184,226
184,242
185,205
186,235
186,241
187,194
188,191
189,192
189,195
189,196
190,193
191,200
192,199
193,197
193,201
194,205
195,198
195,232
196,202
197,203
198,204
199,205
200,206
201,206
201,208
201,209
202,207
202,218
202,239
203,210
204,211
205,212
205,215
206,214
206,218
207,234
209,213
210,217
211,217
212,216
213,218
213,226
214,235
215,219
215,220
216,222
217,221
217,224
217,241
218,225
218,227
218,233
218,242
219,226
219,227
220,223
221,228
222,229
223,230
223,232
223,233
223,234
224,247
224,248
226,231
226,235
227,250
228,239
229,237
230,238
231,236
231,241
232,240
232,242
235,243
236,244
237,245
238,245
239,250
241,248
241,249
242,246
242,247

<end>
